
Gurobi 10.0.1 (win64) logging started Fri Jun  2 12:25:27 2023

Set parameter LogFile to value "results/log/Fattahi_setup_04_modified_deadline.log"
Gurobi Optimizer version 10.0.1 build v10.0.1rc0 (win64)

CPU model: AMD Ryzen 7 3700X 8-Core Processor, instruction set [SSE2|AVX|AVX2]
Thread count: 8 physical cores, 16 logical processors, using up to 16 threads

Optimize a model with 96 rows, 67 columns and 323 nonzeros
Model fingerprint: 0xd81f5dfa
Model has 1 quadratic constraint
Variable types: 0 continuous, 67 integer (56 binary)
Coefficient statistics:
  Matrix range     [1e+00, 1e+09]
  QMatrix range    [1e+00, 1e+00]
  QLMatrix range   [1e+00, 1e+02]
  Objective range  [1e+00, 1e+00]
  Bounds range     [1e+00, 1e+00]
  RHS range        [1e+00, 3e+09]
Warning: Model contains large matrix coefficients
Warning: Model contains large rhs
         Consider reformulating model or setting NumericFocus parameter
         to avoid numerical issues.
Presolve removed 35 rows and 38 columns
Presolve time: 0.00s
Presolved: 70 rows, 41 columns, 258 nonzeros
Presolved model has 8 SOS constraint(s)
Variable types: 0 continuous, 41 integer (22 binary)

Root relaxation: objective 2.060000e+02, 13 iterations, 0.00 seconds (0.00 work units)

    Nodes    |    Current Node    |     Objective Bounds      |     Work
 Expl Unexpl |  Obj  Depth IntInf | Incumbent    BestBd   Gap | It/Node Time

     0     0  206.00000    0    9          -  206.00000      -     -    0s
     0     0  206.00000    0   12          -  206.00000      -     -    0s
     0     0  338.00000    0    9          -  338.00000      -     -    0s
     0     0  473.00000    0    8          -  473.00000      -     -    0s
H    0     0                     712.0000000  473.00000  33.6%     -    0s
     0     0  488.00000    0   12  712.00000  488.00000  31.5%     -    0s
H    0     0                     653.0000000  488.00000  25.3%     -    0s
     0     0  509.00000    0   17  653.00000  509.00000  22.1%     -    0s

Cutting planes:
  Learned: 3
  MIR: 3
  Flow cover: 4

Explored 1 nodes (44 simplex iterations) in 0.01 seconds (0.00 work units)
Thread count was 16 (of 16 available processors)

Solution count 2: 653 712 

Optimal solution found (tolerance 1.00e-04)
Best objective 6.530000000000e+02, best bound 6.530000000000e+02, gap 0.0000%
Warning: variable name "y[job:0, stage:0, machine:1]" has a space
Warning: constraint name "precedence between 1,0 to 0,0 if x_[j,l,h,z,i]=1" has a space
Warning: to let Gurobi read it back, use rlp format
Warning: variable name "y[job:0, stage:0, machine:1]" has a space
Warning: constraint name "precedence between 1,0 to 0,0 if x_[j,l,h,z,i]=1" has a space
Warning: default variable names used to write mps file
Warning: default constraint names used to write mps file
Warning: variable name "y[job:0, stage:0, machine:1]" has a space
Warning: default variable names used to write solution file
